10J3M/DAT/10J3MUNL-8.dat
10 3
10.3541 10.3541
13.7431 13.7431
49.2771 49.2771
24.3767 24.3767
1.6203 1.6203
39.2321 39.2321
36.1225 36.1225
10.6829 10.6829
40.7234 40.7234
3.5423 3.5423
229.6745