10J3M/SOL/10J3MUNL-8.sol
solution status: optimal solution found
objective value:                     81.7587666666667
x#1#2                               0.941836450210911 	(obj:0)
x#1#3                              0.0581635497890887 	(obj:0)
x#2#3                                               1 	(obj:0)
x#3#3                                               1 	(obj:0)
x#4#1                                               1 	(obj:0)
x#5#3                                               1 	(obj:0)
x#6#1                                               1 	(obj:0)
x#7#2                                               1 	(obj:0)
x#8#1                               0.545219494611594 	(obj:0)
x#8#3                               0.454780505388406 	(obj:0)
x#9#3                                               1 	(obj:0)
x#10#3                                              1 	(obj:0)
z                                    81.7587666666667 	(obj:1)
